p wcnf 111 56 57 
1 91 -97 0 
1 50 110 0 
1 53 -11 0 
1 -31 21 0 
1 -42 75 0 
1 64 97 0 
1 89 -110 0 
1 42 11 0 
1 17 -46 0 
1 107 101 0 
1 -21 -61 0 
1 -99 -12 0 
1 -38 -22 0 
1 -9 -101 0 
1 -72 -52 0 
1 -83 58 0 
1 -76 77 0 
1 103 -31 0 
1 13 56 0 
1 -33 -76 0 
1 -42 -110 0 
1 51 -58 0 
1 -103 -62 0 
1 82 -93 0 
1 51 -56 0 
1 74 -6 0 
1 -73 -1 0 
1 -110 41 0 
1 -79 -99 0 
1 -72 -36 0 
1 73 95 0 
1 -104 -90 0 
1 39 -15 0 
1 69 -44 0 
1 99 -75 0 
1 -11 -53 0 
1 -82 -34 0 
1 -97 -68 0 
1 -99 -49 0 
1 18 -83 0 
1 -60 29 0 
1 -53 -109 0 
1 -67 -2 0 
1 39 -19 0 
1 90 -107 0 
1 32 -86 0 
1 -5 2 0 
1 87 -34 0 
1 26 54 0 
1 -3 45 0 
1 8 -36 0 
1 57 14 0 
1 -85 -86 0 
1 40 -75 0 
1 23 -48 0 
1 54 107 0 
